InboundTrucks  = 12;
OutboundTrucks = 8;
InboundDoors   = 4;
OutboundDoors  = 4;
ReleaseTime    = [29,13,32,6,58,18,42,22,38,3,59,34];
UnloadTime     = [25,37,12,14,23,33,37,30,13,22,40,35];
LoadTime       = [26,11,5,18,19,4,28,17];
TransferTime   = [| 0,11,0,14,0,0,0,0 | 0,26,15,0,0,12,28,24 | 0,49,0,0,0,21,0,45 | 0,0,19,0,14,45,0,0 | 27,0,27,0,23,0,0,0 | 0,27,0,0,50,0,0,0 | 31,27,0,47,0,18,33,0 | 0,24,0,17,17,0,0,0 | 0,0,0,0,0,44,0,29 | 0,37,29,0,47,0,0,0 | 0,23,0,0,0,0,0,36 | 0,0,0,0,0,0,0,27 |];
